100 8
455 756
367 857
597 677
884 208
731 371
826 589
144 585
503 352
7 447
351 938
721 640
676 435
725 515
438 675
345 879
827 762
414 147
741 502
98 542
114 478
382 602
160 810
521 350
310 77
931 292
28 558
504 684
632 423
307 305
670 411
735 698
506 598
673 522
272 915
378 125
815 197
348 268
271 823
962 319
199 407
413 720
838 669
449 801
414 221
865 640
580 520
769 692
26 439
614 361
158 420
523 701
643 371
569 461
835 598
256 150
284 782
853 586
760 740
122 526
524 675
669 314
586 376
606 529
831 742
289 192
508 694
898 311
345 273
900 183
469 815
280 618
612 452
617 514
76 485
758 640
493 363
796 184
551 339
713 708
148 847
235 687
859 598
334 914
294 121
769 551
380 37
678 416
559 692
387 236
819 663
30 548
774 384
399 525
830 145
631 501
344 585
362 604
931 678
703 650
909 164
